(set-logic QF_UF)
(declare-fun A0 () Bool)
(declare-fun A1 () Bool)
(declare-fun A2 () Bool)
(declare-fun A3 () Bool)
(declare-fun A4 () Bool)
(declare-fun A5 () Bool)
(declare-fun A6 () Bool)
(declare-fun A7 () Bool)
(declare-fun A8 () Bool)
(declare-fun A9 () Bool)
(declare-fun A11 () Bool)
(declare-fun A12 () Bool)
(declare-fun A13 () Bool)
(declare-fun A14 () Bool)
(declare-fun A16 () Bool)
(declare-fun A17 () Bool)
(declare-fun A18 () Bool)
(declare-fun A19 () Bool)
(declare-fun A20 () Bool)
(declare-fun A21 () Bool)
(declare-fun A22 () Bool)
(declare-fun A23 () Bool)
(declare-fun A24 () Bool)
(assert (let ((.def_0 (not A24))) (let ((.def_1 (not A23))) (let ((.def_2 (and .def_1 .def_0))) (let ((.def_3 (not .def_2))) (let ((.def_4 (and A0 A19))) (let ((.def_5 (and .def_4 .def_3))) (let ((.def_6 (not .def_5))) (let ((.def_7 (not A13))) (let ((.def_8 (and .def_7 A3))) (let ((.def_9 (not .def_8))) (let ((.def_10 (not A4))) (let ((.def_11 (or A6 .def_10))) (let ((.def_12 (not .def_11))) (let ((.def_13 (or .def_12 .def_9))) (let ((.def_14 (or .def_13 .def_6))) (let ((.def_15 (not .def_14))) (let ((.def_16 (and A24 A8))) (let ((.def_17 (not .def_16))) (let ((.def_18 (or A17 A16))) (let ((.def_19 (and .def_18 .def_17))) (let ((.def_20 (and A5 A3))) (let ((.def_21 (or .def_20 .def_4))) (let ((.def_22 (and .def_21 .def_19))) (let ((.def_23 (or .def_22 .def_15))) (let ((.def_24 (not .def_23))) (let ((.def_25 (not A11))) (let ((.def_26 (or A2 .def_25))) (let ((.def_27 (not .def_26))) (let ((.def_28 (or A1 A12))) (let ((.def_29 (= .def_28 .def_27))) (let ((.def_30 (not .def_29))) (let ((.def_31 (and A14 A23))) (let ((.def_32 (not .def_31))) (let ((.def_33 (not A17))) (let ((.def_34 (and .def_33 A20))) (let ((.def_35 (and .def_34 .def_32))) (let ((.def_36 (not .def_35))) (let ((.def_37 (or .def_36 .def_30))) (let ((.def_38 (or .def_0 A3))) (let ((.def_39 (not .def_38))) (let ((.def_40 (not A16))) (let ((.def_41 (or .def_40 A0))) (let ((.def_42 (not .def_41))) (let ((.def_43 (and .def_42 .def_39))) (let ((.def_44 (not A20))) (let ((.def_45 (and .def_44 .def_10))) (let ((.def_46 (or .def_44 A1))) (let ((.def_47 (not .def_46))) (let ((.def_48 (or .def_47 .def_45))) (let ((.def_49 (not .def_48))) (let ((.def_50 (and .def_49 .def_43))) (let ((.def_51 (not .def_50))) (let ((.def_52 (and .def_51 .def_37))) (let ((.def_53 (or .def_52 .def_24))) (let ((.def_54 (not .def_53))) (let ((.def_55 (not A9))) (let ((.def_56 (or .def_55 A11))) (let ((.def_57 (not A22))) (let ((.def_58 (not A3))) (let ((.def_59 (or .def_58 .def_57))) (let ((.def_60 (not .def_59))) (let ((.def_61 (and .def_60 .def_56))) (let ((.def_62 (and A6 .def_1))) (let ((.def_63 (not A8))) (let ((.def_64 (not A0))) (let ((.def_65 (and .def_64 .def_63))) (let ((.def_66 (and .def_65 .def_62))) (let ((.def_67 (or .def_66 .def_61))) (let ((.def_68 (and A8 .def_25))) (let ((.def_69 (or A19 A14))) (let ((.def_70 (not .def_69))) (let ((.def_71 (or .def_70 .def_68))) (let ((.def_72 (not .def_71))) (let ((.def_73 (not A18))) (let ((.def_74 (or .def_73 A13))) (let ((.def_75 (not A5))) (let ((.def_76 (and .def_75 A17))) (let ((.def_77 (and .def_76 .def_74))) (let ((.def_78 (not .def_77))) (let ((.def_79 (or .def_78 .def_72))) (let ((.def_80 (= .def_79 .def_67))) (let ((.def_81 (not .def_80))) (let ((.def_82 (= .def_33 A7))) (let ((.def_83 (or A18 A17))) (let ((.def_84 (or .def_83 .def_82))) (let ((.def_85 (and .def_58 A2))) (let ((.def_86 (not .def_85))) (let ((.def_87 (and .def_33 A2))) (let ((.def_88 (not .def_87))) (let ((.def_89 (and .def_88 .def_86))) (let ((.def_90 (and .def_89 .def_84))) (let ((.def_91 (and A16 A9))) (let ((.def_92 (not .def_91))) (let ((.def_93 (and A21 A24))) (let ((.def_94 (not .def_93))) (let ((.def_95 (= .def_94 .def_92))) (let ((.def_96 (not .def_95))) (let ((.def_97 (and A1 A2))) (let ((.def_98 (not .def_97))) (let ((.def_99 (not A14))) (let ((.def_100 (and A12 .def_99))) (let ((.def_101 (not .def_100))) (let ((.def_102 (or .def_101 .def_98))) (let ((.def_103 (not .def_102))) (let ((.def_104 (and .def_103 .def_96))) (let ((.def_105 (not .def_104))) (let ((.def_106 (or .def_105 .def_90))) (let ((.def_107 (or .def_106 .def_81))) (let ((.def_108 (and .def_107 .def_54))) .def_108))))))))))))))))))))))))))))))))))))))))))))))))))))))))))))))))))))))))))))))))))))))))))))))))))))))))))))))
(check-sat)
